(set-option :pp.decimal true)
(set-option :pp.decimal_precision 7)
(declare-const conc1 Real)
(declare-const conc2 Real)
(declare-const conc3 Real)
(declare-const conc4 Real)
(declare-const conc5 Real)
(declare-const conc6 Real)
(declare-const flow1 Real)
(declare-const flow2 Real)
(declare-const flow3 Real)
(declare-const flow4 Real)
(declare-const flow5 Real)
(declare-const flow6 Real)
(declare-const flow7 Real)
(declare-const flow8 Real)
(declare-const flow9 Real)
(assert (>= conc1 0))
(assert (>= conc2 0))
(assert (>= conc3 0))
(assert (>= conc4 0))
(assert (>= conc5 0))
(assert (>= conc6 0))
(assert (= flow1 (+ (* 0.270499 conc1 conc1) (* -1. 4.35367e-05 conc2))))
(assert (= flow2 (+ (* 0.858528 conc1 conc2) (* -1. 0.0150091 conc3))))
(assert (= flow3 (+ (* 0.343887 conc1 conc3) (* -1. 0.008736 conc4))))
(assert (= flow4 (+ (* 0.317488 conc2 conc2) (* -1. 0.87606 conc4))))
(assert (= flow5 (+ (* 0.341074 conc2 conc3) (* -1. 0.585848 conc5))))
(assert (= flow6 (+ (* 0.644744 conc1 conc4) (* -1. 0.00701645 conc5))))
(assert (= flow7 (+ (* 0.587343 conc1 conc5) (* -1. 0.00546231 conc6))))
(assert (= flow8 (+ (* 0.700862 conc2 conc4) (* -1. 0.440716 conc6))))
(assert (= flow9 (+ (* 0.998468 conc3 conc3) (* -1. 0.912339 conc6))))
(assert (= (+ (* -2 flow1) (* -1 flow2) (* -1 flow3) (* -1 flow6) (* -1 flow7) 9.09807 (* -1. 0.123792 conc1)) 0))
(assert (= (+ (* 1 flow1) (* -1 flow2) (* -2 flow4) (* -1 flow5) (* -1 flow8) 0 (* -1. 0.104242 conc2)) 0))
(assert (= (+ (* 1 flow2) (* -1 flow3) (* -1 flow5) (* -2 flow9) 0 (* -1. 0.0843426 conc3)) 0))
(assert (= (+ (* 1 flow3) (* 1 flow4) (* -1 flow6) (* -1 flow8) 0 (* -1. 0.0920724 conc4)) 0))
(assert (= (+ (* 1 flow5) (* 1 flow6) (* -1 flow7) 0 (* -1. 0.147464 conc5)) 0))
(assert (= (+ (* 1 flow7) (* 1 flow8) (* 1 flow9) 0 (* -1. 0.145421 conc6)) 0))
(check-sat)
(get-model)
